30
2 1 3
3 2 1
5 1 3
5 2 2
5 4 3
6 3 1
7 1 2
7 2 2
7 4 1
8 2 3
8 6 3
9 1 2
9 2 2
9 3 2
9 5 3
9 8 1
10 0 1
10 1 1
10 4 3
10 7 1
10 8 1
11 0 3
11 1 2
11 2 1
11 10 3
12 0 1
12 3 3
12 4 3
12 5 1
12 6 2
12 11 3
13 0 3
13 2 1
13 5 2
13 7 1
13 8 1
13 9 2
13 11 3
14 0 2
14 1 2
14 2 2
14 4 1
14 6 2
14 7 2
14 11 3
15 0 1
15 1 3
15 2 2
15 3 1
15 4 3
15 5 1
15 6 2
15 7 2
15 9 1
15 10 3
15 11 2
15 14 2
16 1 2
16 2 3
16 3 1
16 4 1
16 10 3
16 12 1
16 13 2
16 15 1
17 1 3
17 3 1
17 5 2
17 9 1
17 10 2
17 11 1
17 12 3
17 14 1
18 0 1
18 4 2
18 5 2
18 6 1
18 7 2
18 8 2
18 10 2
18 13 2
18 15 1
18 16 2
19 6 1
19 9 2
19 10 3
19 14 2
19 16 3
19 18 2
20 0 1
20 6 2
20 8 1
20 10 3
20 14 3
20 15 3
20 17 2
20 18 2
20 19 3
21 0 2
21 1 1
21 2 1
21 5 1
21 13 1
21 15 3
21 16 3
21 17 1
21 19 2
21 20 1
22 0 1
22 1 3
22 2 2
22 5 2
22 6 1
22 7 2
22 9 3
22 10 3
22 14 2
22 15 1
22 16 2
22 17 3
22 18 2
22 19 1
22 20 2
22 21 1
23 0 2
23 3 2
23 5 3
23 7 3
23 11 1
23 13 1
23 14 1
23 15 2
23 17 3
23 18 1
23 21 3
23 22 3
24 1 3
24 2 3
24 3 1
24 5 2
24 6 1
24 9 1
24 12 1
24 15 2
24 17 3
24 19 3
24 20 3
24 21 1
24 23 2
25 0 1
25 5 1
25 7 3
25 8 2
25 9 3
25 11 3
25 12 3
25 19 2
25 21 1
25 22 1
25 24 1
26 1 1
26 2 1
26 4 1
26 7 3
26 10 3
26 12 2
26 14 2
26 15 2
26 16 3
26 19 3
26 20 1
26 21 3
26 22 2
26 25 1
27 0 1
27 1 2
27 4 2
27 6 2
27 8 1
27 9 1
27 10 1
27 13 1
27 15 2
27 16 1
27 18 3
27 21 3
28 0 1
28 3 3
28 4 2
28 6 1
28 7 2
28 12 2
28 13 1
28 15 2
28 17 3
28 21 3
28 22 2
28 25 3
28 27 1
29 0 3
29 1 2
29 3 3
29 4 1
29 6 2
29 7 2
29 9 2
29 10 1
29 12 2
29 13 3
29 14 3
29 15 1
29 17 1
29 18 1
29 19 3
29 22 3
29 23 1
29 24 1
29 26 1
29 27 1
